simple-cong.smt2
(set-logic QF_UF)
(set-info :smt-lib-version 2)
(set-info :category "crafted")
(set-info :status unsat)
(declare-sort U 0)
(declare-fun a () U)
(declare-fun b () U)
(declare-fun f (U) U)
(declare-fun p () Bool)
(assert (= a b))
(assert (or p (not (= (f a) (f b)))))
(assert (not p))
(check-sat)
